n_machines = 10;
n_resources = 17;
n_jobs = 43;
horizon = 22219;
LB = 2982;
n_jobs_per_resource = [1, 1, 3, 1, 2, 1, 3, 1, 1, 3, 4, 4, 3, 4, 4, 4, 3];
duration = [11, 435, 999, 26, 885, 59, 759, 450, 704, 176, 327, 334, 333, 870, 84, 414, 815, 539, 463, 213, 807, 933, 984, 67, 998, 677, 654, 995, 838, 449, 214, 80, 581, 567, 894, 283, 463, 292, 429, 888, 168, 805, 257]